<?xml version = "1.0" encoding="UTF-8" standalone="yes"?>
<CPLEXSolution version="1.2">
 <header
   problemName="ILOG.CPLEX"
   solutionName="incumbent"
   solutionIndex="-1"
   objectiveValue="3.6999999999999997"
   solutionTypeValue="3"
   solutionTypeString="primal"
   solutionStatusValue="101"
   solutionStatusString="integer optimal solution"
   solutionMethodString="mip"
   primalFeasible="1"
   dualFeasible="1"
   MIPNodes="258"
   MIPIterations="954"
   writeLevel="1"/>
 <quality
   epInt="1.0000000000000001e-05"
   epRHS="9.9999999999999995e-07"
   maxIntInfeas="2.1988434083519692e-06"
   maxPrimalInfeas="0"
   maxX="1"
   maxSlack="1500.9734995888164"/>
 <linearConstraints>
  <constraint name="C1_0" index="0" slack="0"/>
  <constraint name="C1_1" index="1" slack="0"/>
  <constraint name="C1_2" index="2" slack="0"/>
  <constraint name="C1_3" index="3" slack="0"/>
  <constraint name="C1_4" index="4" slack="0"/>
  <constraint name="2_0_0_0_0" index="5" slack="-6.7409999999999961"/>
  <constraint name="2_0_0_0_2" index="6" slack="-8.0954999999999977"/>
  <constraint name="2_0_0_0_4" index="7" slack="-9.0646666666666675"/>
  <constraint name="2_0_0_0_7" index="8" slack="-5.8343333333333334"/>
  <constraint name="2_0_0_1_0" index="9" slack="-4.6454999999999975"/>
  <constraint name="2_0_0_1_3" index="10" slack="-3.035833333333334"/>
  <constraint name="2_0_0_1_5" index="11" slack="-7.938833333333335"/>
  <constraint name="2_0_1_0_0" index="12" slack="-6.7409999999999961"/>
  <constraint name="2_0_1_0_2" index="13" slack="-8.0954999999999977"/>
  <constraint name="2_0_1_0_4" index="14" slack="-9.0646666666666675"/>
  <constraint name="2_0_1_0_7" index="15" slack="-5.8343333333333334"/>
  <constraint name="2_0_1_1_1" index="16" slack="-4.6545000000000014"/>
  <constraint name="2_0_1_1_3" index="17" slack="-7.690333333333335"/>
  <constraint name="2_0_1_1_5" index="18" slack="-10.593333333333337"/>
  <constraint name="2_0_2_0_0" index="19" slack="-4.6454999999999975"/>
  <constraint name="2_0_2_0_3" index="20" slack="-3.035833333333334"/>
  <constraint name="2_0_2_0_5" index="21" slack="-8.1045000000000016"/>
  <constraint name="2_0_2_0_7" index="22" slack="-7.938833333333335"/>
  <constraint name="2_0_2_1_0" index="23" slack="-6.7409999999999961"/>
  <constraint name="2_0_3_0_0" index="24" slack="-4.6454999999999975"/>
  <constraint name="2_0_3_0_3" index="25" slack="-3.035833333333334"/>
  <constraint name="2_0_3_0_5" index="26" slack="-8.1045000000000016"/>
  <constraint name="2_0_3_0_7" index="27" slack="-7.938833333333335"/>
  <constraint name="2_0_3_1_1" index="28" slack="-6.7590000000000021"/>
  <constraint name="2_0_4_0_1" index="29" slack="-4.6545000000000014"/>
  <constraint name="2_0_4_0_3" index="30" slack="-7.690333333333335"/>
  <constraint name="2_0_4_0_5" index="31" slack="-6.7590000000000021"/>
  <constraint name="2_0_4_0_7" index="32" slack="-10.593333333333337"/>
  <constraint name="2_0_4_1_0" index="33" slack="-8.0954999999999977"/>
  <constraint name="2_0_4_1_2" index="34" slack="-9.0646666666666675"/>
  <constraint name="2_0_4_1_5" index="35" slack="-5.8343333333333334"/>
  <constraint name="2_0_5_0_1" index="36" slack="-0.0035000000000016129"/>
  <constraint name="2_0_5_0_3" index="37" slack="-0.0060000000000020037"/>
  <constraint name="2_0_5_0_5" index="38" slack="-0.0080000000000026716"/>
  <constraint name="2_0_5_0_7" index="39" slack="-0.0090000000000038938"/>
  <constraint name="2_0_5_1_1" index="40" slack="-0.001500000000000945"/>
  <constraint name="2_0_5_1_3" index="41" slack="-0.0035000000000025011"/>
  <constraint name="2_0_5_1_5" index="42" slack="-0.0045000000000019469"/>
  <constraint name="2_1_0_0_0" index="43" slack="-6.7409999999999961"/>
  <constraint name="2_1_0_0_2" index="44" slack="-10.496999999999998"/>
  <constraint name="2_1_0_0_4" index="45" slack="-10.496999999999998"/>
  <constraint name="2_1_0_0_6" index="46" slack="-7.5823333333333327"/>
  <constraint name="2_1_0_0_8" index="47" slack="0"/>
  <constraint name="2_1_0_0_11" index="48" slack="-3.5015000000000005"/>
  <constraint name="2_1_0_1_0" index="49" slack="-8.243999999999998"/>
  <constraint name="2_1_0_1_3" index="50" slack="0"/>
  <constraint name="2_1_0_1_5" index="51" slack="-2.9186666666666676"/>
  <constraint name="2_1_0_1_7" index="52" slack="-10.503000000000002"/>
  <constraint name="2_1_0_1_9" index="53" slack="-10.004500000000002"/>
  <constraint name="2_1_0_2_1" index="54" slack="-6.7590000000000021"/>
  <constraint name="2_1_1_0_0" index="55" slack="-6.7409999999999961"/>
  <constraint name="2_1_1_0_2" index="56" slack="-10.496999999999998"/>
  <constraint name="2_1_1_0_4" index="57" slack="-10.496999999999998"/>
  <constraint name="2_1_1_0_6" index="58" slack="-7.5823333333333327"/>
  <constraint name="2_1_1_0_8" index="59" slack="0"/>
  <constraint name="2_1_1_0_11" index="60" slack="-3.5015000000000005"/>
  <constraint name="2_1_1_1_1" index="61" slack="-8.256000000000002"/>
  <constraint name="2_1_1_1_3" index="62" slack="-8.256000000000002"/>
  <constraint name="2_1_1_1_5" index="63" slack="-7.1746666666666696"/>
  <constraint name="2_1_1_1_7" index="64" slack="-6.7590000000000021"/>
  <constraint name="2_1_1_1_9" index="65" slack="-10.260500000000004"/>
  <constraint name="2_1_1_2_1" index="66" slack="0"/>
  <constraint name="2_1_1_2_3" index="67" slack="-2.9186666666666676"/>
  <constraint name="2_1_1_2_5" index="68" slack="-10.503000000000002"/>
  <constraint name="2_1_1_2_7" index="69" slack="-10.004500000000002"/>
  <constraint name="2_1_2_0_0" index="70" slack="-8.243999999999998"/>
  <constraint name="2_1_2_0_3" index="71" slack="0"/>
  <constraint name="2_1_2_0_5" index="72" slack="-2.9186666666666676"/>
  <constraint name="2_1_2_0_7" index="73" slack="-10.503000000000002"/>
  <constraint name="2_1_2_0_9" index="74" slack="-10.503000000000002"/>
  <constraint name="2_1_2_0_11" index="75" slack="-10.004500000000002"/>
  <constraint name="2_1_2_1_0" index="76" slack="-6.7409999999999961"/>
  <constraint name="2_1_2_1_2" index="77" slack="0"/>
  <constraint name="2_1_2_1_5" index="78" slack="-3.5015000000000005"/>
  <constraint name="2_1_2_2_1" index="79" slack="-6.7590000000000021"/>
  <constraint name="2_1_3_0_0" index="80" slack="-8.243999999999998"/>
  <constraint name="2_1_3_0_3" index="81" slack="0"/>
  <constraint name="2_1_3_0_5" index="82" slack="-2.9186666666666676"/>
  <constraint name="2_1_3_0_7" index="83" slack="-10.503000000000002"/>
  <constraint name="2_1_3_0_9" index="84" slack="-10.503000000000002"/>
  <constraint name="2_1_3_0_11" index="85" slack="-10.004500000000002"/>
  <constraint name="2_1_3_1_1" index="86" slack="-0.0080000000000026716"/>
  <constraint name="2_1_3_1_3" index="87" slack="-0.0080000000000026716"/>
  <constraint name="2_1_3_1_5" index="88" slack="-0.0095000000000045048"/>
  <constraint name="2_1_3_2_0" index="89" slack="0"/>
  <constraint name="2_1_4_0_1" index="90" slack="-8.256000000000002"/>
  <constraint name="2_1_4_0_3" index="91" slack="-8.256000000000002"/>
  <constraint name="2_1_4_0_5" index="92" slack="-7.1746666666666696"/>
  <constraint name="2_1_4_0_7" index="93" slack="-6.7590000000000021"/>
  <constraint name="2_1_4_0_9" index="94" slack="-6.7590000000000021"/>
  <constraint name="2_1_4_0_11" index="95" slack="-10.260500000000004"/>
  <constraint name="2_1_4_1_0" index="96" slack="-10.496999999999998"/>
  <constraint name="2_1_4_1_2" index="97" slack="-10.496999999999998"/>
  <constraint name="2_1_4_1_4" index="98" slack="-7.5823333333333327"/>
  <constraint name="2_1_4_1_6" index="99" slack="0"/>
  <constraint name="2_1_4_1_9" index="100" slack="-3.5015000000000005"/>
  <constraint name="2_1_4_2_1" index="101" slack="0"/>
  <constraint name="2_1_4_2_3" index="102" slack="-2.9186666666666676"/>
  <constraint name="2_1_4_2_5" index="103" slack="-10.503000000000002"/>
  <constraint name="2_1_4_2_7" index="104" slack="-10.004500000000002"/>
  <constraint name="2_1_5_0_1" index="105" slack="-8.256000000000002"/>
  <constraint name="2_1_5_0_3" index="106" slack="-8.256000000000002"/>
  <constraint name="2_1_5_0_5" index="107" slack="-7.1746666666666696"/>
  <constraint name="2_1_5_0_7" index="108" slack="-6.7590000000000021"/>
  <constraint name="2_1_5_0_9" index="109" slack="-6.7590000000000021"/>
  <constraint name="2_1_5_0_11" index="110" slack="-10.260500000000004"/>
  <constraint name="2_1_5_1_1" index="111" slack="0"/>
  <constraint name="2_1_5_1_3" index="112" slack="-2.9186666666666676"/>
  <constraint name="2_1_5_1_5" index="113" slack="-10.503000000000002"/>
  <constraint name="2_1_5_1_7" index="114" slack="-10.503000000000002"/>
  <constraint name="2_1_5_1_9" index="115" slack="-10.004500000000002"/>
  <constraint name="2_1_5_2_0" index="116" slack="0"/>
  <constraint name="2_2_0_0_0" index="117" slack="-501.49700000000001"/>
  <constraint name="2_2_0_0_2" index="118" slack="-1500.9732000000001"/>
  <constraint name="2_2_0_0_5" index="119" slack="0"/>
  <constraint name="2_2_0_0_7" index="120" slack="-1200"/>
  <constraint name="2_2_0_0_9" index="121" slack="-1100.4506000000001"/>
  <constraint name="2_2_0_0_11" index="122" slack="-902.10180000000003"/>
  <constraint name="2_2_0_1_0" index="123" slack="0"/>
  <constraint name="2_2_0_1_3" index="124" slack="-0.0041004111837992241"/>
  <constraint name="2_2_0_1_5" index="125" slack="-0.0014617990937040304"/>
  <constraint name="2_2_0_1_7" index="126" slack="-0.002282672914077466"/>
  <constraint name="2_2_0_1_9" index="127" slack="-0.0039260696873952838"/>
  <constraint name="2_2_1_0_0" index="128" slack="-1000.5216"/>
  <constraint name="2_2_1_0_3" index="129" slack="-1500.9734995888164"/>
  <constraint name="2_2_1_0_5" index="130" slack="-1500.9734995888164"/>
  <constraint name="2_2_1_0_7" index="131" slack="-300.97613820090635"/>
  <constraint name="2_2_1_0_9" index="132" slack="-401.42651732708595"/>
  <constraint name="2_2_1_0_11" index="133" slack="-603.07727393031269"/>
  <constraint name="2_2_1_1_1" index="134" slack="0"/>
  <constraint name="2_3_0_0_0" index="135" slack="-4.5823333333333327"/>
  <constraint name="2_3_0_0_3" index="136" slack="-9"/>
  <constraint name="2_3_0_0_5" index="137" slack="-2.8343333333333338"/>
  <constraint name="2_3_0_1_1" index="138" slack="-3.4186666666666672"/>
  <constraint name="2_3_1_0_1" index="139" slack="0"/>
  <constraint name="2_3_1_0_3" index="140" slack="0"/>
  <constraint name="2_3_1_0_5" index="141" slack="-0.001000000000000778"/>
  <constraint name="2_4_0_0_0" index="142" slack="-5.5015000000000001"/>
  <constraint name="2_4_0_0_2" index="143" slack="-12.973199999999999"/>
  <constraint name="2_4_0_0_4" index="144" slack="-5.5840833333333331"/>
  <constraint name="2_4_0_0_6" index="145" slack="-8.7522500000000001"/>
  <constraint name="2_4_0_0_8" index="146" slack="-7.4969999999999981"/>
  <constraint name="2_4_0_0_11" index="147" slack="-5.5840833333333331"/>
  <constraint name="2_4_0_1_0" index="148" slack="-9.0045000000000019"/>
  <constraint name="2_4_0_1_2" index="149" slack="-6.5262000000000002"/>
  <constraint name="2_4_0_1_4" index="150" slack="-7.0870833333333332"/>
  <constraint name="2_4_0_1_6" index="151" slack="-12.255250000000002"/>
  <constraint name="2_4_0_1_9" index="152" slack="-7.0870833333333332"/>
  <constraint name="2_4_0_2_0" index="153" slack="-10.478300000000001"/>
  <constraint name="2_4_0_2_3" index="154" slack="-8.5608833333333347"/>
  <constraint name="2_4_0_2_5" index="155" slack="-13.729050000000001"/>
  <constraint name="2_4_0_2_7" index="156" slack="-8.5608833333333347"/>
  <constraint name="2_4_1_0_0" index="157" slack="-5.5015000000000001"/>
  <constraint name="2_4_1_0_2" index="158" slack="-12.973199999999999"/>
  <constraint name="2_4_1_0_4" index="159" slack="-5.5840833333333331"/>
  <constraint name="2_4_1_0_6" index="160" slack="-8.7522500000000001"/>
  <constraint name="2_4_1_0_8" index="161" slack="-7.4969999999999981"/>
  <constraint name="2_4_1_0_11" index="162" slack="-5.5840833333333331"/>
  <constraint name="2_4_1_1_0" index="163" slack="-10.478300000000001"/>
  <constraint name="2_4_1_1_3" index="164" slack="-8.5608833333333347"/>
  <constraint name="2_4_1_1_5" index="165" slack="-13.729050000000001"/>
  <constraint name="2_4_1_1_7" index="166" slack="-6.5237999999999987"/>
  <constraint name="2_4_1_1_9" index="167" slack="-8.5608833333333347"/>
  <constraint name="2_4_2_0_0" index="168" slack="-9.0045000000000019"/>
  <constraint name="2_4_2_0_2" index="169" slack="-6.5262000000000002"/>
  <constraint name="2_4_2_0_4" index="170" slack="-7.0870833333333332"/>
  <constraint name="2_4_2_0_6" index="171" slack="-12.255250000000002"/>
  <constraint name="2_4_2_0_9" index="172" slack="-7.5030000000000001"/>
  <constraint name="2_4_2_0_11" index="173" slack="-7.0870833333333332"/>
  <constraint name="2_4_2_1_0" index="174" slack="-5.5015000000000001"/>
  <constraint name="2_4_2_1_2" index="175" slack="-12.973199999999999"/>
  <constraint name="2_4_2_1_4" index="176" slack="-5.5840833333333331"/>
  <constraint name="2_4_2_1_6" index="177" slack="-8.7522500000000001"/>
  <constraint name="2_4_2_1_9" index="178" slack="-5.5840833333333331"/>
  <constraint name="2_4_2_2_0" index="179" slack="-10.478300000000001"/>
  <constraint name="2_4_2_2_3" index="180" slack="-8.5608833333333347"/>
  <constraint name="2_4_2_2_5" index="181" slack="-13.729050000000001"/>
  <constraint name="2_4_2_2_7" index="182" slack="-8.5608833333333347"/>
  <constraint name="2_4_3_0_0" index="183" slack="-0.0035000000000025011"/>
  <constraint name="2_4_3_0_2" index="184" slack="-0.00020000000000042206"/>
  <constraint name="2_4_3_0_4" index="185" slack="-0.0027500000000006963"/>
  <constraint name="2_4_3_0_6" index="186" slack="-0.0042500000000025295"/>
  <constraint name="2_4_3_0_9" index="187" slack="-0.0020000000000006679"/>
  <constraint name="2_4_3_0_11" index="188" slack="-0.0027500000000006963"/>
  <constraint name="2_4_3_1_0" index="189" slack="-0.0023000000000017451"/>
  <constraint name="2_4_3_1_3" index="190" slack="-0.0015500000000017167"/>
  <constraint name="2_4_3_1_5" index="191" slack="-0.0030500000000017735"/>
  <constraint name="2_4_3_1_7" index="192" slack="-0.00080000000000168825"/>
  <constraint name="2_4_3_1_9" index="193" slack="-0.0015500000000017167"/>
  <constraint name="2_4_4_0_0" index="194" slack="-10.478300000000001"/>
  <constraint name="2_4_4_0_3" index="195" slack="-8.5608833333333347"/>
  <constraint name="2_4_4_0_5" index="196" slack="-13.729050000000001"/>
  <constraint name="2_4_4_0_7" index="197" slack="-6.5237999999999987"/>
  <constraint name="2_4_4_0_9" index="198" slack="-12.976800000000001"/>
  <constraint name="2_4_4_0_11" index="199" slack="-8.5608833333333347"/>
  <constraint name="2_4_4_1_0" index="200" slack="-5.5015000000000001"/>
  <constraint name="2_4_4_1_2" index="201" slack="-5.5840833333333331"/>
  <constraint name="2_4_4_1_4" index="202" slack="-8.7522500000000001"/>
  <constraint name="2_4_4_1_6" index="203" slack="-7.4969999999999981"/>
  <constraint name="2_4_4_1_9" index="204" slack="-5.5840833333333331"/>
  <constraint name="2_4_5_0_0" index="205" slack="-10.478300000000001"/>
  <constraint name="2_4_5_0_3" index="206" slack="-8.5608833333333347"/>
  <constraint name="2_4_5_0_5" index="207" slack="-13.729050000000001"/>
  <constraint name="2_4_5_0_7" index="208" slack="-6.5237999999999987"/>
  <constraint name="2_4_5_0_9" index="209" slack="-12.976800000000001"/>
  <constraint name="2_4_5_0_11" index="210" slack="-8.5608833333333347"/>
  <constraint name="2_4_5_1_0" index="211" slack="-9.0045000000000019"/>
  <constraint name="2_4_5_1_2" index="212" slack="-7.0870833333333332"/>
  <constraint name="2_4_5_1_4" index="213" slack="-12.255250000000002"/>
  <constraint name="2_4_5_1_7" index="214" slack="-7.5030000000000001"/>
  <constraint name="2_4_5_1_9" index="215" slack="-7.0870833333333332"/>
  <constraint name="c217" index="216" slack="0"/>
  <constraint name="c218" index="217" slack="0"/>
  <constraint name="c219" index="218" slack="-0.996999999999999"/>
  <constraint name="c220" index="219" slack="-1.003000000000001"/>
  <constraint name="c221" index="220" slack="0"/>
  <constraint name="c222" index="221" slack="0"/>
  <constraint name="c223" index="222" slack="0"/>
  <constraint name="c224" index="223" slack="0"/>
  <constraint name="c225" index="224" slack="0"/>
  <constraint name="c226" index="225" slack="0"/>
 </linearConstraints>
 <variables>
  <variable name="gamma_2_5_0" index="0" value="-0"/>
  <variable name="gamma_2_5_1" index="1" value="-0"/>
  <variable name="gamma_2_5_2" index="2" value="0"/>
  <variable name="gamma_2_4_0" index="3" value="-0"/>
  <variable name="gamma_2_4_1" index="4" value="-0"/>
  <variable name="gamma_2_4_2" index="5" value="0"/>
  <variable name="gamma_2_3_0" index="6" value="-0"/>
  <variable name="gamma_2_3_1" index="7" value="-0"/>
  <variable name="gamma_2_3_2" index="8" value="0"/>
  <variable name="gamma_2_2_0" index="9" value="-0"/>
  <variable name="gamma_2_2_1" index="10" value="-0"/>
  <variable name="gamma_2_2_2" index="11" value="0"/>
  <variable name="gamma_2_1_0" index="12" value="-0"/>
  <variable name="gamma_2_1_1" index="13" value="-0"/>
  <variable name="gamma_2_1_2" index="14" value="0"/>
  <variable name="gamma_2_0_0" index="15" value="-0"/>
  <variable name="gamma_2_0_1" index="16" value="-0"/>
  <variable name="gamma_2_0_2" index="17" value="0"/>
  <variable name="gamma_4_5_0" index="18" value="0"/>
  <variable name="gamma_4_5_1" index="19" value="0"/>
  <variable name="gamma_4_5_2" index="20" value="-0"/>
  <variable name="gamma_4_4_0" index="21" value="0"/>
  <variable name="gamma_4_4_1" index="22" value="-0"/>
  <variable name="gamma_4_4_2" index="23" value="0"/>
  <variable name="gamma_4_3_0" index="24" value="0"/>
  <variable name="gamma_4_3_1" index="25" value="0"/>
  <variable name="gamma_4_3_2" index="26" value="-0"/>
  <variable name="gamma_4_2_0" index="27" value="1"/>
  <variable name="gamma_4_2_1" index="28" value="-0"/>
  <variable name="gamma_4_2_2" index="29" value="1"/>
  <variable name="gamma_4_1_0" index="30" value="-0"/>
  <variable name="gamma_4_1_1" index="31" value="0"/>
  <variable name="gamma_4_1_2" index="32" value="0"/>
  <variable name="gamma_4_0_0" index="33" value="-0"/>
  <variable name="gamma_4_0_1" index="34" value="0"/>
  <variable name="gamma_4_0_2" index="35" value="0"/>
  <variable name="gamma_1_1_0" index="36" value="0.99999780115659165"/>
  <variable name="gamma_1_1_1" index="37" value="-0"/>
  <variable name="gamma_1_0_0" index="38" value="-0"/>
  <variable name="gamma_1_0_1" index="39" value="2.1988434083439648e-06"/>
  <variable name="gamma_0_1_0" index="40" value="-0"/>
  <variable name="gamma_0_1_1" index="41" value="-0"/>
  <variable name="gamma_0_0_0" index="42" value="-0"/>
  <variable name="gamma_0_0_1" index="43" value="0"/>
  <variable name="gamma_3_5_0" index="44" value="-0"/>
  <variable name="gamma_3_5_1" index="45" value="-0"/>
  <variable name="gamma_3_5_2" index="46" value="-0"/>
  <variable name="gamma_3_4_0" index="47" value="-0"/>
  <variable name="gamma_3_4_1" index="48" value="-0"/>
  <variable name="gamma_3_4_2" index="49" value="0"/>
  <variable name="gamma_3_3_0" index="50" value="-0"/>
  <variable name="gamma_3_3_1" index="51" value="-0"/>
  <variable name="gamma_3_3_2" index="52" value="-0"/>
  <variable name="gamma_3_2_0" index="53" value="-0"/>
  <variable name="gamma_3_2_1" index="54" value="-0"/>
  <variable name="gamma_3_2_2" index="55" value="0"/>
  <variable name="gamma_3_1_0" index="56" value="-0"/>
  <variable name="gamma_3_1_1" index="57" value="-0"/>
  <variable name="gamma_3_1_2" index="58" value="0"/>
  <variable name="gamma_3_0_0" index="59" value="-0"/>
  <variable name="gamma_3_0_1" index="60" value="-0"/>
  <variable name="gamma_3_0_2" index="61" value="0"/>
  <variable name="a_0" index="62" value="-0"/>
  <variable name="a_1" index="63" value="1"/>
  <variable name="a_2" index="64" value="-0"/>
  <variable name="a_3" index="65" value="0"/>
  <variable name="a_4" index="66" value="-0"/>
  <variable name="s_2_5" index="67" value="-0"/>
  <variable name="s_2_4" index="68" value="-0"/>
  <variable name="s_2_3" index="69" value="0"/>
  <variable name="s_2_2" index="70" value="-0"/>
  <variable name="s_2_1" index="71" value="-0"/>
  <variable name="s_2_0" index="72" value="1"/>
  <variable name="s_4_5" index="73" value="-0"/>
  <variable name="s_4_4" index="74" value="-0"/>
  <variable name="s_4_3" index="75" value="-0"/>
  <variable name="s_4_2" index="76" value="1"/>
  <variable name="s_4_1" index="77" value="-0"/>
  <variable name="s_4_0" index="78" value="-0"/>
  <variable name="s_1_1" index="79" value="0.99999780115659165"/>
  <variable name="s_1_0" index="80" value="2.1988434083439648e-06"/>
  <variable name="s_0_1" index="81" value="0"/>
  <variable name="s_0_0" index="82" value="1"/>
  <variable name="s_3_5" index="83" value="-0"/>
  <variable name="s_3_4" index="84" value="-0"/>
  <variable name="s_3_3" index="85" value="-0"/>
  <variable name="s_3_2" index="86" value="1"/>
  <variable name="s_3_1" index="87" value="0"/>
  <variable name="s_3_0" index="88" value="-0"/>
  <variable name="g_0" index="89" value="0"/>
  <variable name="g_1" index="90" value="0.0030000000000010027"/>
  <variable name="g_2" index="91" value="0"/>
  <variable name="g_3" index="92" value="0"/>
  <variable name="g_4" index="93" value="0"/>
 </variables>
</CPLEXSolution>
